p cnf 295 1000
c t mc
1 2 3 0
1 2 3 0
1 2 3 0
1 2 3 0
4 5 6 0
4 5 6 0
4 5 6 0
4 5 6 0
1 7 -8 0
1 7 -8 0
1 -7 8 0
-1 7 8 0
6 8 9 0
6 8 9 0
6 8 9 0
12 10 0
12 11 0
10 11 -12 0
13 12 0
13 9 0
12 9 -13 0
9 13 -14 0
9 13 -14 0
9 -13 14 0
-9 13 14 0
16 1 0
16 15 0
-1 15 16 0
17 16 0
17 10 0
16 10 17 0
18 14 0
18 17 0
14 17 18 0
19 3 0
19 18 0
21 22 23 0
21 22 23 0
21 22 23 0
21 22 23 0
24 9 0
24 23 0
9 23 24 0
25 2 0
25 24 0
2 24 -25 0
28 27 0
28 21 0
27 21 28 0
8 28 29 0
8 28 29 0
8 28 29 0
8 28 29 0
26 29 -30 0
26 29 -30 0
26 -29 30 0
-26 29 30 0
30 31 32 0
30 31 32 0
30 31 32 0
30 31 32 0
33 32 0
25 32 33 0
20 33 -34 0
20 33 -34 0
-20 33 34 0
20 -33 34 0
35 19 0
35 34 0
-19 34 35 0
36 16 0
36 21 0
38 27 0
38 37 0
27 37 38 0
39 38 0
39 29 0
38 29 39 0
2 5 40 0
2 5 40 0
2 5 40 0
2 5 40 0
41 40 0
41 28 0
40 28 41 0
42 39 0
39 41 -42 0
43 36 0
43 42 0
36 42 43 0
46 31 0
46 11 0
31 11 46 0
45 46 -47 0
45 46 -47 0
-45 46 47 0
45 -46 47 0
44 7 48 0
44 7 48 0
44 7 48 0
44 7 48 0
49 48 0
49 6 0
48 6 49 0
50 47 0
50 49 0
47 49 50 0
51 50 0
51 20 0
50 20 51 0
53 22 0
53 52 0
52 10 54 0
52 10 54 0
52 10 54 0
52 10 54 0
55 53 0
55 54 0
53 54 -55 0
51 55 56 0
51 55 56 0
51 55 56 0
51 55 56 0
57 44 0
57 56 0
44 56 57 0
58 43 0
58 57 0
43 57 58 0
35 58 59 0
35 58 59 0
35 58 59 0
35 58 59 0
61 60 0
61 26 0
60 26 -61 0
62 61 0
62 21 0
61 21 -62 0
27 62 63 0
27 62 63 0
27 62 63 0
27 62 63 0
64 1 0
1 63 64 0
64 24 65 0
64 24 65 0
64 24 65 0
64 24 65 0
67 60 0
67 20 0
60 20 -67 0
67 27 -68 0
67 27 -68 0
67 -27 68 0
-67 27 68 0
69 66 0
69 68 0
66 68 69 0
65 69 70 0
65 69 70 0
65 69 70 0
65 69 70 0
71 11 0
71 60 0
11 60 71 0
72 11 0
72 8 0
11 8 72 0
73 71 0
71 72 -73 0
73 8 -74 0
73 8 -74 0
-73 -8 74 0
73 -8 74 0
45 31 -75 0
45 31 -75 0
-45 31 75 0
45 -31 75 0
76 74 0
76 75 0
74 75 76 0
77 70 0
77 76 0
70 76 -77 0
78 26 0
78 52 0
-26 52 78 0
79 27 0
79 11 0
80 27 0
80 15 0
27 15 80 0
80 20 81 0
80 20 81 0
80 20 81 0
80 20 81 0
82 79 0
82 81 0
79 81 -82 0
78 82 83 0
78 82 83 0
78 82 83 0
78 82 83 0
84 27 0
84 17 0
-27 17 84 0
85 84 0
85 23 0
84 -23 85 0
86 83 0
86 85 0
22 37 -87 0
22 37 -87 0
22 -37 87 0
-22 37 87 0
88 86 0
88 87 0
86 87 -88 0
89 77 0
89 88 0
77 88 -89 0
90 59 0
90 89 0
59 89 90 0
91 66 0
91 26 0
66 26 -91 0
92 91 0
92 10 0
91 10 92 0
93 60 0
93 13 0
60 13 -93 0
94 93 0
25 93 94 0
92 94 -95 0
92 94 -95 0
-92 94 95 0
92 -94 95 0
96 92 0
96 24 0
92 24 -96 0
97 2 0
97 61 0
2 61 97 0
98 26 0
98 97 0
26 97 -98 0
99 98 0
99 49 0
98 49 -99 0
100 96 0
100 99 0
96 99 100 0
100 46 -101 0
100 46 -101 0
-100 46 101 0
100 -46 101 0
102 62 0
62 -74 102 0
103 101 0
103 102 0
101 102 -103 0
104 60 0
104 75 0
60 75 -104 0
5 104 -105 0
5 104 -105 0
5 -104 105 0
-5 104 105 0
92 5 -106 0
92 5 -106 0
-92 5 106 0
92 -5 106 0
107 44 0
107 29 0
44 29 -107 0
108 92 0
108 107 0
92 107 108 0
109 106 0
106 108 109 0
110 79 0
110 109 0
-79 109 110 0
111 105 0
111 110 0
105 110 -111 0
112 103 0
112 111 0
103 111 112 0
95 112 113 0
95 112 113 0
95 112 113 0
95 112 113 0
114 37 0
114 48 0
37 48 114 0
115 71 0
115 62 0
71 62 115 0
75 115 116 0
75 115 116 0
75 115 116 0
75 115 116 0
117 114 0
117 116 0
114 116 117 0
75 22 118 0
75 22 118 0
75 22 118 0
75 22 118 0
117 118 -119 0
117 118 -119 0
-117 118 119 0
117 -118 119 0
120 119 0
120 98 0
119 98 -120 0
121 120 0
37 120 121 0
122 121 0
122 116 0
121 116 122 0
123 49 0
123 60 0
49 60 123 0
124 61 0
124 123 0
61 -123 124 0
107 125 0
107 125 0
124 125 -126 0
124 125 -126 0
124 -125 126 0
-124 125 126 0
122 126 -127 0
122 126 -127 0
122 -126 127 0
122 126 127 0
128 4 0
128 31 0
4 -31 128 0
80 128 129 0
80 128 129 0
80 128 129 0
80 128 129 0
130 127 0
130 129 0
127 129 -130 0
113 130 -131 0
113 130 -131 0
-113 130 131 0
113 -130 131 0
132 24 0
31 24 -132 0
131 132 -133 0
131 132 -133 0
131 132 133 0
-131 132 133 0
134 2 0
134 80 0
2 80 134 0
135 123 0
135 134 0
123 134 -135 0
136 93 0
136 63 0
-93 63 136 0
137 136 0
137 11 0
-136 11 137 0
138 135 0
138 137 0
135 137 -138 0
118 119 139 0
118 119 139 0
118 119 139 0
118 119 139 0
138 139 140 0
138 139 140 0
138 139 140 0
141 66 0
141 24 0
66 24 141 0
141 16 -142 0
141 16 -142 0
141 -16 142 0
-141 16 142 0
143 142 0
143 47 0
142 47 143 0
144 143 0
144 66 0
143 66 144 0
145 38 0
145 44 0
38 44 145 0
146 144 0
146 145 0
144 145 146 0
140 146 -147 0
140 146 -147 0
140 -146 147 0
-140 146 147 0
73 67 148 0
73 67 148 0
73 67 148 0
73 67 148 0
149 148 0
149 22 0
148 22 -149 0
150 147 0
150 149 0
147 149 150 0
151 24 0
151 14 0
24 14 151 0
152 150 0
152 151 0
150 151 152 0
91 68 153 0
91 68 153 0
91 68 153 0
91 68 153 0
154 4 0
154 115 0
4 -115 154 0
155 154 0
51 154 155 0
156 62 0
156 155 0
-62 155 156 0
157 153 0
157 156 0
153 156 157 0
97 26 -158 0
97 26 -158 0
97 -26 158 0
-97 26 158 0
159 52 0
159 158 0
52 158 -159 0
78 159 160 0
78 159 160 0
78 159 160 0
78 159 160 0
160 98 161 0
160 98 161 0
160 98 161 0
160 98 161 0
162 161 0
162 67 0
161 67 162 0
158 119 -163 0
158 119 -163 0
158 -119 163 0
-158 119 163 0
164 163 0
164 16 0
163 16 164 0
165 162 0
165 164 0
162 164 165 0
166 157 0
166 165 0
157 165 -166 0
167 160 0
167 26 0
160 26 -167 0
168 6 0
168 15 0
6 15 -168 0
169 167 0
169 168 0
167 168 169 0
170 16 0
170 78 0
16 -78 170 0
169 170 -171 0
-169 170 171 0
169 -170 171 0
172 38 0
172 41 0
38 41 172 0
173 115 0
173 11 0
-115 11 173 0
174 37 0
174 12 0
37 12 174 0
175 173 0
175 174 0
-173 174 175 0
176 63 0
176 49 0
63 49 176 0
177 175 0
177 176 0
175 -176 177 0
172 177 178 0
172 177 178 0
172 177 178 0
172 177 178 0
179 171 0
179 178 0
171 -178 179 0
180 166 0
180 179 0
-166 179 180 0
181 108 0
181 71 0
108 71 -181 0
180 181 182 0
180 181 182 0
180 181 182 0
180 181 182 0
183 152 144 0
152 182 183 0
184 9 0
184 46 0
9 46 -184 0
185 74 0
185 10 0
74 10 185 0
185 61 186 0
185 61 186 0
185 61 186 0
185 61 186 0
187 2 0
187 39 0
2 39 187 0
188 93 0
188 187 0
93 -187 188 0
186 188 189 0
186 188 189 0
186 188 189 0
186 188 189 0
190 184 0
190 189 0
184 -189 190 0
183 190 191 0
183 190 191 0
183 190 191 0
183 190 191 0
48 128 -192 0
48 128 -192 0
48 -128 192 0
-48 128 192 0
193 173 0
193 41 0
173 41 193 0
194 192 0
194 193 0
192 193 -194 0
28 44 -195 0
28 44 -195 0
28 -44 195 0
-28 44 195 0
46 61 196 0
46 61 196 0
46 61 196 0
197 196 0
197 134 0
-196 134 197 0
199 73 0
199 108 0
73 108 -199 0
15 199 200 0
15 199 200 0
15 199 200 0
15 199 200 0
198 200 -201 0
198 200 -201 0
198 -200 201 0
-198 200 201 0
202 197 0
202 201 0
197 201 202 0
203 128 0
203 12 0
128 12 -203 0
204 202 0
204 203 0
202 203 204 0
205 195 0
205 204 0
195 204 205 0
206 16 0
206 41 0
16 -41 206 0
205 206 207 0
205 206 207 0
205 206 207 0
205 206 207 0
208 6 0
208 160 0
6 160 208 0
209 93 0
209 37 0
93 37 -209 0
210 37 0
210 21 0
37 21 -210 0
211 210 0
60 210 211 0
212 63 0
212 84 0
63 84 212 0
211 212 213 0
211 212 213 0
211 212 213 0
211 212 213 0
214 209 0
214 213 0
209 213 214 0
215 44 0
215 15 0
44 15 215 0
214 215 216 0
214 215 216 0
214 215 216 0
214 215 216 0
208 216 217 0
208 216 217 0
208 216 217 0
208 216 217 0
207 217 218 0
207 217 218 0
207 217 218 0
207 217 218 0
26 159 219 0
26 159 219 0
26 159 219 0
220 154 0
220 116 0
154 116 220 0
154 74 -221 0
154 74 -221 0
154 -74 221 0
154 74 221 0
220 221 222 0
220 221 222 0
220 221 222 0
220 221 222 0
223 73 0
223 84 0
73 84 -223 0
5 223 224 0
5 223 224 0
5 223 224 0
5 223 224 0
225 44 0
225 72 0
44 72 -225 0
226 224 0
226 225 0
224 225 226 0
222 226 227 0
222 226 227 0
222 226 227 0
222 226 227 0
219 227 228 0
219 227 228 0
219 227 228 0
219 227 228 0
229 218 0
229 228 0
218 228 229 0
230 194 0
230 229 0
194 229 230 0
231 191 0
231 230 0
191 230 -231 0
232 133 0
232 231 0
-133 231 232 0
90 232 233 0
90 232 233 0
90 232 233 0
90 232 233 0
234 50 0
234 114 0
50 -114 234 0
235 115 0
235 234 0
-115 234 235 0
45 63 -236 0
45 63 -236 0
45 -63 236 0
-45 63 236 0
237 235 0
237 236 0
235 236 237 0
238 121 0
238 237 0
121 237 238 0
52 159 -239 0
52 159 -239 0
-52 159 239 0
52 -159 239 0
239 22 -240 0
239 22 -240 0
-239 22 240 0
239 22 240 0
241 240 0
241 80 0
-240 80 241 0
12 64 242 0
12 64 242 0
12 64 242 0
12 64 242 0
243 241 0
243 242 0
241 242 243 0
244 238 0
244 243 0
238 243 244 0
245 13 0
245 4 0
-13 4 245 0
246 244 0
246 245 0
-244 245 246 0
91 73 -247 0
91 73 -247 0
-91 73 247 0
91 -73 247 0
8 247 -248 0
8 247 -248 0
-8 247 248 0
8 -247 248 0
249 134 0
249 248 0
134 248 249 0
250 17 0
250 64 0
17 64 250 0
249 250 251 0
249 250 251 0
249 250 251 0
249 250 251 0
252 246 0
252 251 0
246 251 -252 0
240 167 253 0
240 167 253 0
240 167 253 0
240 167 253 0
254 148 0
254 30 0
148 -30 254 0
55 254 255 0
55 254 255 0
55 254 255 0
55 254 255 0
253 255 256 0
253 255 256 0
253 255 256 0
253 255 256 0
257 5 0
257 92 0
5 92 257 0
66 257 -258 0
66 257 -258 0
-66 257 258 0
66 -257 258 0
259 99 0
259 136 0
99 136 -259 0
260 16 0
260 12 0
16 12 260 0
261 259 0
261 260 0
259 -260 261 0
262 258 0
262 261 0
-258 261 262 0
263 2 0
263 54 0
2 54 263 0
264 52 0
264 263 0
52 -263 264 0
265 262 0
265 264 0
262 264 265 0
266 256 0
266 265 0
256 265 266 0
267 252 0
267 266 0
252 266 267 0
128 167 268 0
128 167 268 0
128 167 268 0
128 167 268 0
269 5 0
269 242 0
5 242 269 0
270 45 0
270 269 0
-45 269 270 0
268 270 271 0
268 270 271 0
268 270 271 0
-268 -270 271 0
-78 2 -272 0
78 -2 -272 0
78 2 272 0
78 2 272 0
-271 272 -273 0
271 -272 -273 0
-271 -272 273 0
271 272 273 0
-274 -267 0
-274 -273 0
267 273 274 0
75 97 -275 0
-75 -97 -275 0
-75 -97 275 0
-75 97 275 0
78 -17 -276 0
-78 17 -276 0
78 17 276 0
78 17 276 0
277 -275 0
277 -276 0
-275 276 -277 0
278 12 0
278 107 0
12 107 278 0
-279 277 0
-279 -278 0
-277 278 279 0
-280 -274 0
-280 -279 0
-274 279 280 0
-108 -78 -281 0
108 78 -281 0
-108 78 281 0
108 -78 281 0
-124 21 -282 0
124 -21 -282 0
-124 -21 -282 0
124 21 282 0
283 282 0
283 41 0
-282 -41 -283 0
-284 254 0
-284 -283 0
-254 283 284 0
-285 281 0
-285 -284 0
-281 284 285 0
-286 49 0
-286 -4 0
-49 4 286 0
-287 285 0
-287 286 0
-285 -286 287 0
96 160 -288 0
-96 -160 -288 0
96 -160 288 0
-96 160 288 0
-289 -287 0
-289 -288 0
-287 288 289 0
290 72 0
290 -282 0
-72 -282 -290 0
-2 247 -291 0
2 -247 -291 0
-2 -247 291 0
2 247 291 0
-292 -290 0
-292 291 0
290 -291 292 0
-293 -289 0
-293 -292 0
-289 292 293 0
294 280 0
294 -293 0
-280 293 -294 0
-295 233 0
-295 -294 0
-233 294 295 0
-188 -118 -267 -280 -107 -10 42 0
-112 23 267 0
76 101 -13 90 -233 -278 0
56 -47 -238 279 0
-250 121 34 279 0
204 -18 -211 -101 -104 -86 -132 -5 0
154 -24 -92 62 0
-165 -217 -241 -59 216 19 -90 -114 295 192 0
38 37 183 58 -249 -260 295 111 -189 -235 0
146 -83 0
14 -243 192 -282 -190 -250 130 0
65 38 10 -225 -100 107 -112 -278 78 0
127 83 -215 0
96 -283 0
68 -37 6 -97 -273 -50 38 42 100 -227 0
235 -247 -191 253 -154 226 188 -29 0
162 29 -214 -229 -210 -108 -32 -94 211 9 0
-53 97 -57 -117 85 34 -23 17 0
-68 -22 -276 200 -35 0
111 -160 -118 167 215 -71 139 64 221 0
-190 -124 164 0
-255 257 -153 105 146 -44 -77 -113 65 0
3 65 51 249 -114 136 -193 -79 0
-38 -9 213 -209 -7 231 29 -54 0
94 115 0
262 -230 0
-233 -59 -106 -4 -204 -228 70 0
-12 204 -77 -221 203 -83 271 -183 0
237 -275 0
-101 124 -67 267 0
-27 111 -200 -272 -158 85 109 0
71 189 270 0
-131 14 95 234 0
115 126 238 -288 -91 0
184 286 -126 233 -159 252 124 113 54 -145 0
291 -134 46 -79 187 0
-262 243 -235 32 222 -74 -164 -257 0
49 -100 -86 -209 -57 -90 -162 0
-6 -189 83 -183 -127 137 0
-62 159 -294 184 -41 116 0
-217 -245 280 -146 111 0
8 -289 287 124 122 142 29 0
-263 -6 -66 216 -276 272 0
-127 -58 0
-49 88 251 136 171 -81 -197 -26 208 0
-34 -135 12 131 -285 262 42 0
169 -197 0
-54 -282 -217 -268 0
243 7 50 219 231 0
23 6 185 32 141 -115 -44 -287 146 -129 0
-5 -258 -213 -268 0
147 -120 57 -261 62 -173 -123 0
-260 280 -132 149 -95 -265 -194 -198 0
-84 59 -262 0
-33 47 81 -100 -211 -157 224 7 0
55 16 118 -116 0
262 -86 -79 260 -73 -42 -253 0
179 181 118 -255 167 139 0
-62 50 -99 -41 60 21 -110 65 0
-193 -9 269 -198 -263 -38 0
194 187 0
19 88 210 25 -240 -58 -146 0
170 263 -6 155 150 -70 104 158 33 0
-148 12 -24 9 76 0
-12 218 -253 -236 -273 199 0
186 -19 -79 135 201 43 0
290 32 245 257 -55 -186 -291 22 288 0
19 47 -62 231 0
234 13 -100 -102 -243 253 184 -6 0
28 -22 111 -277 -130 268 63 -86 0
259 79 -224 -194 0
181 -191 215 252 0
114 205 293 -89 0
-208 174 -104 -170 14 0
-290 113 -117 57 -228 -278 193 23 0
-138 188 122 -157 84 54 0
-97 -177 -266 -261 -24 257 240 -149 -292 0
150 2 156 -293 285 224 0
-119 -147 101 -199 271 148 69 0
-65 249 -277 33 -141 0
-294 116 39 92 -246 87 252 156 -239 128 0
100 -38 -241 -242 0
95 228 -195 -32 -152 98 0
-78 -41 145 141 -184 100 263 257 111 -176 0
-259 55 -253 66 -92 170 119 -110 -42 -284 0
139 -90 -240 116 -44 185 141 179 181 -171 0
7 276 -12 269 190 117 255 -273 264 59 0
-55 -99 -132 70 -197 161 169 0
70 -245 -164 -10 266 -160 50 -134 0
18 -209 212 -80 63 -235 54 0
118 97 -74 -266 0
-246 169 -97 221 268 -220 156 33 214 -54 0
-287 131 -52 119 225 122 -137 96 0
158 104 169 -229 178 -73 0
-154 231 -89 26 216 119 -110 57 -107 -201 0
38 -35 -26 -55 -92 0
4 119 0
-217 202 220 109 -247 0
-167 52 -289 -225 -200 62 -207 -20 0
-34 193 0
176 272 262 -177 135 -222 -75 226 0
-35 136 175 -283 -144 0
281 -183 287 -51 244 216 260 -111 124 0
107 -127 120 236 129 51 0
-64 -278 -246 -248 -280 79 70 225 76 129 0
-7 -37 -251 125 143 165 -191 -38 -74 0
-255 250 259 -126 -128 -242 -291 0
-49 48 211 -229 138 181 -171 199 -170 0
-295 0
